&GLOBAL
  PROJECT one_dimension
  RUN_TYPE ENERGY
  PRINT_LEVEL LOW
&END GLOBAL

&FORCE_EVAL
  METHOD Quickstep

  &SUBSYS
    &KIND Si
      ELEMENT	Si
      BASIS_SET DZVP-GTH-PBE
      POTENTIAL GTH-PBE-q4
    &END KIND
    
    &KIND C
      ELEMENT	C
      BASIS_SET DZVP-GTH-PBE
      POTENTIAL GTH-PBE-q4
    &END KIND

    &CELL
      ABC    5.000    10.000    10.000
      PERIODIC X
    &END CELL

    &COORD
      Si    1.000    0.000    0.000
      C     2.500    0.000    0.000
      Si    4.000    0.000    0.000
    &END COORD
  &END SUBSYS
  &DFT
    BASIS_SET_FILE_NAME  BASIS_SET
    POTENTIAL_FILE_NAME  GTH_POTENTIALS

    &POISSON
      PERIODIC X
      POISSON_SOLVER ANALYTIC
    &END POISSON

    &KPOINTS
      SCHEME MONKHORST-PACK 100 1 1
    &END KPOINTS

    &QS
      METHOD GPW
      EPS_DEFAULT 1.0E-10
    &END QS

    &MGRID
      NGRIDS 4
      CUTOFF 300
      REL_CUTOFF 60
    &END MGRID

    &XC
      &XC_FUNCTIONAL PBE
      &END XC_FUNCTIONAL
    &END XC

    &SCF
      SCF_GUESS ATOMIC
      EPS_SCF 1.0E-7
      MAX_SCF 300
      ADDED_MOS 20

      &DIAGONALIZATION  ON
        ALGORITHM STANDARD
      &END DIAGONALIZATION

      &MIXING  T
        METHOD BROYDEN_MIXING
        ALPHA 0.4
        NBROYDEN 8
      &END MIXING

      &SMEAR ON
        METHOD FERMI_DIRAC
        ELECTRONIC_TEMPERATURE [K] 300
      &END SMEAR
    &END SCF

    &PRINT
      &BAND_STRUCTURE
        ADDED_MOS 2
        FILE_NAME band_structure.out
        &KPOINT_SET
          UNITS B_VECTOR
          SPECIAL_POINT -0.50000   0.00000    0.00000 # X
          SPECIAL_POINT  0.00000   0.00000    0.00000 # Gamma
          NPOINTS 49
        &END KPOINT_SET
      &END BAND_STRUCTURE
    &END PRINT
  &END DFT
&END FORCE_EVAL